9,1,2,1,10,1,4,2,1,1,7,1,5,1,10,4,3,2,3,3,14,3,11,1,4,4;13,1,13,2,9,2,12,2,2,2,10,2,10,3,1,2,7,2,14,2,5,2,11,2,3,4,11,3,11,4;6,1,14,1,12,1,6,3,12,3,13,3,8,3,3,1,1,3,4,3,14,4;4,1,8,1,6,2,8,2,9,3,9,4,2,3,6,4,12,4,2,4,13,4,8,4,7,3,7,4,1,4,5,3,5,4;
